c turning on binary mode checking
c parsing input formula with 202048 variables and 780985 clauses
c finished parsing, read 16401502 bytes from proof file
c detected empty clause; start verification via backward checking
c 5032 of 780985 clauses in core                            
c 4533 of 451088 lemmas in core using 27930 resolution steps
c 0 RAT lemmas in core; 180 redundant literals in core lemmas
s VERIFIED
c verification time: 1.953 seconds
